\ENCODING=ISO-8859-1
\Problem name: instances

Maximize
 obj:
Subject To
 c1: 78 x1 + 310 x2 + 996 x3 + 656 x4 + 574 x5 + 821 x6 + 676 x7 + 177 x8
     + 800 x9 + 63 x10 + 752 x11 + 250 x12 + 397 x13 + 492 x14 + 774 x15
     + 355 x16 + 381 x17 + 837 x18 + 824 x19 + 210 x20 + 666 x21 + 121 x22
     + 339 x23 + 228 x24 + 711 x25 + 549 x26 + 883 x27 + 335 x28 + 356 x29
     + 119 x30 + 806 x31 + 434 x32 + 428 x33 + 802 x34 + 89 x35 + 2 x36
     + 623 x37 + 765 x38 + 178 x39 + 423 x40 + 828 x41 + 929 x42 + 673 x43
     + 224 x44 + 421 x45 + 446 x46 + 579 x47 + 802 x48 + 282 x49 + 402 x50
     + 11 x51 + 947 x52 + 523 x53 + 349 x54 + 175 x55 + 234 x56 + 898 x57
     + 58 x58 + 569 x59 + 253 x60 + 176 x61 + 375 x62 + 686 x63 + 603 x64
     + 176 x65 + 775 x66 + 605 x67 + 799 x68 + 540 x69 + 783 x70 + 221 x71
     + 367 x72 + 711 x73 + 893 x74 + 591 x75 + 132 x76 + 338 x77 + 169 x78
     + 934 x79 + 620 x80 + 571 x81 + 945 x82 + 567 x83 + 93 x84 + 294 x85
     + 741 x86 + 327 x87 + 191 x88 + 798 x89 + 895 x90 + 443 x91 + 973 x92
     + 270 x93 + 129 x94 + 576 x95 + 445 x96 + 904 x97 + 181 x98 + 244 x99
     + 443 x100 <= 24703
Bounds
 0 <= x1 <= 1
 0 <= x2 <= 1
 0 <= x3 <= 1
 0 <= x4 <= 1
 0 <= x5 <= 1
 0 <= x6 <= 1
 0 <= x7 <= 1
 0 <= x8 <= 1
 0 <= x9 <= 1
 0 <= x10 <= 1
 0 <= x11 <= 1
 0 <= x12 <= 1
 0 <= x13 <= 1
 0 <= x14 <= 1
 0 <= x15 <= 1
 0 <= x16 <= 1
 0 <= x17 <= 1
 0 <= x18 <= 1
 0 <= x19 <= 1
 0 <= x20 <= 1
 0 <= x21 <= 1
 0 <= x22 <= 1
 0 <= x23 <= 1
 0 <= x24 <= 1
 0 <= x25 <= 1
 0 <= x26 <= 1
 0 <= x27 <= 1
 0 <= x28 <= 1
 0 <= x29 <= 1
 0 <= x30 <= 1
 0 <= x31 <= 1
 0 <= x32 <= 1
 0 <= x33 <= 1
 0 <= x34 <= 1
 0 <= x35 <= 1
 0 <= x36 <= 1
 0 <= x37 <= 1
 0 <= x38 <= 1
 0 <= x39 <= 1
 0 <= x40 <= 1
 0 <= x41 <= 1
 0 <= x42 <= 1
 0 <= x43 <= 1
 0 <= x44 <= 1
 0 <= x45 <= 1
 0 <= x46 <= 1
 0 <= x47 <= 1
 0 <= x48 <= 1
 0 <= x49 <= 1
 0 <= x50 <= 1
 0 <= x51 <= 1
 0 <= x52 <= 1
 0 <= x53 <= 1
 0 <= x54 <= 1
 0 <= x55 <= 1
 0 <= x56 <= 1
 0 <= x57 <= 1
 0 <= x58 <= 1
 0 <= x59 <= 1
 0 <= x60 <= 1
 0 <= x61 <= 1
 0 <= x62 <= 1
 0 <= x63 <= 1
 0 <= x64 <= 1
 0 <= x65 <= 1
 0 <= x66 <= 1
 0 <= x67 <= 1
 0 <= x68 <= 1
 0 <= x69 <= 1
 0 <= x70 <= 1
 0 <= x71 <= 1
 0 <= x72 <= 1
 0 <= x73 <= 1
 0 <= x74 <= 1
 0 <= x75 <= 1
 0 <= x76 <= 1
 0 <= x77 <= 1
 0 <= x78 <= 1
 0 <= x79 <= 1
 0 <= x80 <= 1
 0 <= x81 <= 1
 0 <= x82 <= 1
 0 <= x83 <= 1
 0 <= x84 <= 1
 0 <= x85 <= 1
 0 <= x86 <= 1
 0 <= x87 <= 1
 0 <= x88 <= 1
 0 <= x89 <= 1
 0 <= x90 <= 1
 0 <= x91 <= 1
 0 <= x92 <= 1
 0 <= x93 <= 1
 0 <= x94 <= 1
 0 <= x95 <= 1
 0 <= x96 <= 1
 0 <= x97 <= 1
 0 <= x98 <= 1
 0 <= x99 <= 1
 0 <= x100 <= 1
Binaries
 x1  x2  x3  x4  x5  x6  x7  x8  x9  x10  x11  x12  x13  x14  x15  x16  x17 
 x18  x19  x20  x21  x22  x23  x24  x25  x26  x27  x28  x29  x30  x31  x32 
 x33  x34  x35  x36  x37  x38  x39  x40  x41  x42  x43  x44  x45  x46  x47 
 x48  x49  x50  x51  x52  x53  x54  x55  x56  x57  x58  x59  x60  x61  x62 
 x63  x64  x65  x66  x67  x68  x69  x70  x71  x72  x73  x74  x75  x76  x77 
 x78  x79  x80  x81  x82  x83  x84  x85  x86  x87  x88  x89  x90  x91  x92 
 x93  x94  x95  x96  x97  x98  x99  x100 
End
